1198
39	40	43	17	11	36	4	8	48	7	3	25	20	12	38	31	44	12	0	38	10	2	32	41	47	49	36	5	13	46	15	34	33	7	13	49	25	28	12	39	7	35	45	16	40	42	7	33	1	5	11	3	26	0	21	26	43	44	47	24	43	32	38	40	39	36	1	8	10	48	5	4	15	19	35	36	2	16	47	15	8	12	24	13	27	23	4	39	24	24	24	48	24	41	21	34	11	9	8	2	
41	23	44	12	31	15	28	20	43	20	15	21	36	36	39	29	0	19	20	21	24	12	33	10	12	37	32	40	3	11	9	14	8	37	37	28	16	5	19	39	39	0	33	18	36	4	19	37	36	20	35	7	15	16	28	14	44	31	11	8	16	20	35	33	32	7	44	14	22	32	37	6	17	12	38	15	2	12	44	11	32	10	5	41	6	4	28	23	19	2	44	10	40	12	13	38	13	34	5	25	